6,3	0,0	5,5	13,0	0,0	0,0	0,0	0,0	0,0	19,5
12,7	17,6	0,0	5,7	13,1	0,0	0,0	12,8	0,0	0,0
0,0	0,0	11,4	0,0	9,1	18,7	0,0	0,0	19,9	0,0
16,7	0,0	17,6	0,0	0,0	0,0	10,3	0,0	0,0	0,0
0,0	15,8	0,0	17,8	7,5	0,0	0,0	7,6	0,0	0,0
0,0	18,5	18,4	0,0	9,5	12,1	0,0	0,0	9,7	0,0
0,0	19,3	0,0	10,1	0,0	0,0	5,3	0,0	0,0	9,4
17,5	0,0	8,0	0,0	0,0	0,0	0,0	0,0	0,0	9,7
0,0	13,1	0,0	7,5	5,4	0,0	0,0	18,3	0,0	0,0
0,0	0,0	9,7	0,0	0,0	10,6	10,2	0,0	0,0	12,4
									
3,0	3,9	3,0	3,1	4,6	2,7	5,0	4,9	4,5	4,9
